# Solution for model count
# Objective value = 10
z#1 1
z#2 1
z#3 0
z#4 0
z#5 0
z#6 0
z#7 1
z#8 0
z#9 0
z#10 0
z#11 0
z#12 1
z#13 1
z#14 1
z#15 1
z#16 1
z#17 0
z#18 0
z#19 0
z#20 1
z#21 1
z#22 0
z#23 0
z#24 0
x#24 0
x#23 0
x#22 0
x#21 2552
x#20 38
x#19 0
x#18 0
x#17 0
x#16 1539
x#15 28
x#14 573
x#13 32
x#12 4537
x#11 0
x#10 0
x#9 0
x#8 0
x#7 41
x#6 0
x#5 0
x#4 0
x#3 0
x#2 76
x#1 584
